
Gurobi 9.5.2 (mac64[arm]) logging started Mon May  1 21:13:30 2023

Set parameter LogFile to value "Java/output/special_iterative/scenario_seed_0_nJob_40_machineCount_2/mip_increment_1/log.txt"
Gurobi Optimizer version 9.5.2 build v9.5.2rc0 (mac64[arm])
Thread count: 8 physical cores, 8 logical processors, using up to 8 threads
Optimize a model with 2273 rows, 16470 columns and 219655 nonzeros
Model fingerprint: 0xfbb591f1
Variable types: 0 continuous, 16470 integer (16470 binary)
Coefficient statistics:
  Matrix range     [1e+00, 2e+02]
  Objective range  [6e+01, 4e+06]
  Bounds range     [1e+00, 1e+00]
  RHS range        [1e+00, 1e+00]
Found heuristic solution: objective 1.150554e+07
Presolve removed 289 rows and 2881 columns
Presolve time: 0.25s
Presolved: 1984 rows, 13589 columns, 182010 nonzeros
Variable types: 0 continuous, 13589 integer (13589 binary)
Found heuristic solution: objective 1.130893e+07

Root relaxation: objective 1.004465e+04, 2216 iterations, 0.13 seconds (0.29 work units)

    Nodes    |    Current Node    |     Objective Bounds      |     Work
 Expl Unexpl |  Obj  Depth IntInf | Incumbent    BestBd   Gap | It/Node Time

     0     0 10044.6489    0  190 1.1309e+07 10044.6489   100%     -    0s
H    0     0                    9973120.0000 10044.6489   100%     -    0s
H    0     0                    2574864.0000 10044.6489   100%     -    0s
H    0     0                    2508240.0000 10044.6489   100%     -    0s
H    0     0                    1888592.0000 10044.6489  99.5%     -    0s
     0     0 10139.7785    0  228 1888592.00 10139.7785  99.5%     -    0s
H    0     0                    60944.000000 10139.7785  83.4%     -    1s
H    0     0                    12128.000000 10144.6739  16.4%     -    1s
     0     0 10144.6739    0  220 12128.0000 10144.6739  16.4%     -    1s
     0     0 10209.7281    0  257 12128.0000 10209.7281  15.8%     -    1s
     0     0 10209.7281    0  161 12128.0000 10209.7281  15.8%     -    2s
H    0     0                    12000.000000 10209.7281  14.9%     -    2s
H    0     0                    11968.000000 10209.7281  14.7%     -    2s
H    0     0                    11936.000000 10209.7281  14.5%     -    2s
     0     0 10209.7281    0  231 11936.0000 10209.7281  14.5%     -    2s
H    0     0                    11920.000000 10209.7281  14.3%     -    2s
H    0     0                    11856.000000 10209.7281  13.9%     -    2s
     0     0 10227.4315    0  243 11856.0000 10227.4315  13.7%     -    2s
     0     0 10231.1283    0  243 11856.0000 10231.1283  13.7%     -    2s
     0     0 10232.2913    0  240 11856.0000 10232.2913  13.7%     -    2s
     0     0 10232.2978    0  245 11856.0000 10232.2978  13.7%     -    2s
     0     0 10281.4261    0  294 11856.0000 10281.4261  13.3%     -    2s
     0     0 10288.7883    0  291 11856.0000 10288.7883  13.2%     -    2s
     0     0 10289.3516    0  296 11856.0000 10289.3516  13.2%     -    2s
     0     0 10289.3578    0  295 11856.0000 10289.3578  13.2%     -    2s
     0     0 10338.3760    0  311 11856.0000 10338.3760  12.8%     -    3s
     0     0 10348.6775    0  305 11856.0000 10348.6775  12.7%     -    3s
     0     0 10349.2243    0  313 11856.0000 10349.2243  12.7%     -    3s
     0     0 10349.3387    0  314 11856.0000 10349.3387  12.7%     -    3s
H    0     0                    11792.000000 10349.3387  12.2%     -    3s
H    0     0                    11216.000000 10349.3387  7.73%     -    3s
H    0     0                    11184.000000 10349.3387  7.46%     -    3s
H    0     0                    11136.000000 10349.3387  7.06%     -    3s
     0     0 10377.8937    0  343 11136.0000 10377.8937  6.81%     -    3s
H    0     0                    11120.000000 10377.8937  6.67%     -    3s
     0     0 10383.9592    0  343 11120.0000 10383.9592  6.62%     -    3s
     0     0 10385.7311    0  358 11120.0000 10385.7311  6.60%     -    3s
     0     0 10385.9361    0  353 11120.0000 10385.9361  6.60%     -    3s
     0     0 10385.9747    0  358 11120.0000 10385.9747  6.60%     -    3s
H    0     0                    11088.000000 10385.9747  6.33%     -    4s
H    0     0                    11072.000000 10385.9747  6.20%     -    4s
     0     0 10399.3962    0  348 11072.0000 10399.3962  6.07%     -    4s
     0     0 10399.4998    0  355 11072.0000 10399.4998  6.07%     -    4s
     0     0 10409.8775    0  321 11072.0000 10409.8775  5.98%     -    4s
     0     0 10410.7603    0  327 11072.0000 10410.7603  5.97%     -    4s
     0     0 10411.0566    0  330 11072.0000 10411.0566  5.97%     -    4s
     0     0 10411.0932    0  334 11072.0000 10411.0932  5.97%     -    4s
     0     0 10415.2845    0  362 11072.0000 10415.2845  5.93%     -    4s
     0     0 10415.7727    0  370 11072.0000 10415.7727  5.93%     -    4s
     0     0 10415.8826    0  379 11072.0000 10415.8826  5.93%     -    4s
     0     0 10417.9584    0  372 11072.0000 10417.9584  5.91%     -    5s
     0     0 10418.1068    0  375 11072.0000 10418.1068  5.91%     -    5s
     0     0 10419.3071    0  383 11072.0000 10419.3071  5.89%     -    5s
     0     0 10419.3071    0  375 11072.0000 10419.3071  5.89%     -    5s
     0     2 10419.5477    0  375 11072.0000 10419.5477  5.89%     -    5s
H   31    40                    11024.000000 10424.9316  5.43%  1026    7s
H   65    74                    10992.000000 10425.9421  5.15%   975    8s
H   68    74                    10944.000000 10425.9421  4.73%   988    8s
   141   147 10549.0351   11  248 10944.0000 10448.3701  4.53%   951   10s
   563   468 10842.1043   79   59 10944.0000 10448.3701  4.53%   642   15s
   966   730 10743.8698   23  118 10944.0000 10456.1096  4.46%   625   20s
  1531  1095 10638.8495   11  257 10944.0000 10481.4576  4.23%   563   25s
  1567  1119 10849.7693   37  420 10944.0000 10481.4576  4.23%   550   30s
  1590  1141 10622.3212   18  344 10944.0000 10481.4576  4.23%   579   35s
H 1601  1089                    10880.000000 10481.4576  3.66%   584   36s
H 1640  1058                    10800.000000 10489.1675  2.88%   603   38s
H 1640  1007                    10736.000000 10489.1675  2.30%   603   38s
H 1692   952                    10720.000000 10509.2702  1.97%   607   39s
  1736   969 10705.2164   28  251 10720.0000 10509.2702  1.97%   612   40s
H 1836   917                    10704.000000 10509.2702  1.82%   607   41s
  2041   906 10679.0124   39  178 10704.0000 10509.2702  1.82%   607   45s
  2412   844     cutoff   29      10704.0000 10550.8277  1.43%   612   50s
  2641   829     cutoff   29      10704.0000 10569.9610  1.25%   621   55s
  3196   731 10683.1046   25  292 10704.0000 10593.6817  1.03%   613   60s
  3640   630 10671.8715   37  361 10704.0000 10609.9036  0.88%   624   65s
  4173   488     cutoff   35      10704.0000 10624.7177  0.74%   624   70s
* 4595   426              41    10672.000000 10634.8556  0.35%   620   74s
  4707   283     cutoff   29      10672.0000 10636.4836  0.33%   617   76s

Cutting planes:
  Cover: 23
  Clique: 120
  MIR: 277
  StrongCG: 136
  Flow cover: 65
  GUB cover: 136
  Inf proof: 2
  Zero half: 8
  Mod-K: 2
  RLT: 8

Explored 5280 nodes (3057885 simplex iterations) in 76.79 seconds (226.04 work units)
Thread count was 8 (of 8 available processors)

Solution count 10: 10672 10704 10720 ... 11072

Optimal solution found (tolerance 1.00e-04)
Best objective 1.067200000000e+04, best bound 1.067200000000e+04, gap 0.0000%

Gurobi 9.5.2 (mac64[arm]) logging started Mon May  1 21:14:47 2023

Set parameter LogFile to value "Java/output/special_iterative/scenario_seed_0_nJob_40_machineCount_2/mip_increment_1/log.txt"
Gurobi Optimizer version 9.5.2 build v9.5.2rc0 (mac64[arm])
Thread count: 8 physical cores, 8 logical processors, using up to 8 threads
Optimize a model with 2255 rows, 9068 columns and 110617 nonzeros
Model fingerprint: 0x3dac7349
Variable types: 0 continuous, 9068 integer (9068 binary)
Coefficient statistics:
  Matrix range     [1e+00, 2e+02]
  Objective range  [3e+02, 8e+05]
  Bounds range     [1e+00, 1e+00]
  RHS range        [1e+00, 1e+00]
Found heuristic solution: objective 1832380.0000
Presolve removed 817 rows and 933 columns
Presolve time: 0.15s
Presolved: 1438 rows, 8135 columns, 98910 nonzeros
Variable types: 0 continuous, 8135 integer (8135 binary)
Found heuristic solution: objective 1752256.0000

Root relaxation: objective 1.050087e+05, 788 iterations, 0.03 seconds (0.05 work units)

    Nodes    |    Current Node    |     Objective Bounds      |     Work
 Expl Unexpl |  Obj  Depth IntInf | Incumbent    BestBd   Gap | It/Node Time

     0     0 105008.667    0   62 1752256.00 105008.667  94.0%     -    0s
H    0     0                    116760.00000 105008.667  10.1%     -    0s
H    0     0                    110904.00000 105008.667  5.32%     -    0s
H    0     0                    110880.00000 105008.667  5.30%     -    0s
     0     0 105014.222    0   61 110880.000 105014.222  5.29%     -    0s
     0     0 105015.236    0   67 110880.000 105015.236  5.29%     -    0s
H    0     0                    110868.00000 105015.236  5.28%     -    0s
     0     0 105024.875    0   57 110868.000 105024.875  5.27%     -    0s
H    0     0                    106564.00000 105024.875  1.44%     -    0s
H    0     0                    105200.00000 105024.875  0.17%     -    0s
     0     0 105024.875    0   56 105200.000 105024.875  0.17%     -    0s
     0     0 105034.041    0   68 105200.000 105034.041  0.16%     -    0s
     0     0 105034.349    0   72 105200.000 105034.349  0.16%     -    0s
     0     0 105034.350    0   71 105200.000 105034.350  0.16%     -    0s
H    0     0                    105188.00000 105034.350  0.15%     -    0s
     0     0 105046.802    0  109 105188.000 105046.802  0.13%     -    0s
H    0     0                    105168.00000 105046.802  0.12%     -    0s
H    0     0                    105160.00000 105046.802  0.11%     -    0s
     0     0 105049.037    0   77 105160.000 105049.037  0.11%     -    0s
     0     0 105049.426    0   88 105160.000 105049.426  0.11%     -    0s
     0     0 105051.202    0   79 105160.000 105051.202  0.10%     -    0s
     0     0 105051.202    0   57 105160.000 105051.202  0.10%     -    0s
H    0     0                    105152.00000 105051.202  0.10%     -    0s
     0     0 105051.202    0   98 105152.000 105051.202  0.10%     -    0s
     0     0 105052.132    0  119 105152.000 105052.132  0.09%     -    0s
     0     0 105052.422    0  102 105152.000 105052.422  0.09%     -    0s
     0     0 105052.422    0  103 105152.000 105052.422  0.09%     -    0s
     0     0 105053.923    0   98 105152.000 105053.923  0.09%     -    0s
H    0     0                    105108.00000 105053.923  0.05%     -    0s
     0     0 105054.030    0   98 105108.000 105054.030  0.05%     -    0s
     0     0 105054.739    0   97 105108.000 105054.739  0.05%     -    0s
H    0     0                    105080.00000 105054.739  0.02%     -    1s
     0     0 105055.201    0  110 105080.000 105055.201  0.02%     -    1s
     0     0 105055.491    0  115 105080.000 105055.491  0.02%     -    1s
     0     0 105055.491    0  118 105080.000 105055.491  0.02%     -    1s
     0     0 105056.000    0    2 105080.000 105056.000  0.02%     -    1s
     0     0 105056.000    0   63 105080.000 105056.000  0.02%     -    1s
     0     0 105056.000    0   66 105080.000 105056.000  0.02%     -    1s
     0     0 105056.000    0   75 105080.000 105056.000  0.02%     -    1s
     0     0 105056.000    0   74 105080.000 105056.000  0.02%     -    1s
     0     0 105056.000    0   99 105080.000 105056.000  0.02%     -    1s
*    0     0               0    105056.00000 105056.000  0.00%     -    1s

Cutting planes:
  Gomory: 2
  Cover: 3
  Clique: 12
  MIR: 11
  StrongCG: 8
  GUB cover: 13
  Zero half: 7
  RLT: 3

Explored 1 nodes (8721 simplex iterations) in 1.13 seconds (1.64 work units)
Thread count was 8 (of 8 available processors)

Solution count 10: 105056 105080 105080 ... 105200

Optimal solution found (tolerance 1.00e-04)
Best objective 1.050560000000e+05, best bound 1.050560000000e+05, gap 0.0000%

Gurobi 9.5.2 (mac64[arm]) logging started Mon May  1 21:14:49 2023

Set parameter LogFile to value "Java/output/special_iterative/scenario_seed_0_nJob_40_machineCount_2/mip_increment_1/log.txt"
Gurobi Optimizer version 9.5.2 build v9.5.2rc0 (mac64[arm])
Thread count: 8 physical cores, 8 logical processors, using up to 8 threads
Optimize a model with 2262 rows, 7069 columns and 80534 nonzeros
Model fingerprint: 0xc44e4ce0
Variable types: 0 continuous, 7069 integer (7069 binary)
Coefficient statistics:
  Matrix range     [1e+00, 2e+02]
  Objective range  [1e+02, 2e+05]
  Bounds range     [1e+00, 1e+00]
  RHS range        [1e+00, 1e+00]
Presolve removed 1263 rows and 1344 columns
Presolve time: 0.10s
Presolved: 999 rows, 5725 columns, 64751 nonzeros
Variable types: 0 continuous, 5725 integer (5725 binary)

Root relaxation: objective 2.354980e+05, 1229 iterations, 0.04 seconds (0.07 work units)

    Nodes    |    Current Node    |     Objective Bounds      |     Work
 Expl Unexpl |  Obj  Depth IntInf | Incumbent    BestBd   Gap | It/Node Time

     0     0 235497.986    0   96          - 235497.986      -     -    0s
H    0     0                    590337.00000 235497.986  60.1%     -    0s
H    0     0                    500046.00000 235497.986  52.9%     -    0s
H    0     0                    432287.00000 235497.986  45.5%     -    0s
H    0     0                    365720.00000 235497.986  35.6%     -    0s
     0     0 236490.209    0  147 365720.000 236490.209  35.3%     -    0s
H    0     0                    364609.00000 236490.209  35.1%     -    0s
H    0     0                    347162.00000 236490.209  31.9%     -    0s
     0     0 236578.250    0  144 347162.000 236578.250  31.9%     -    0s
     0     0 236578.250    0  143 347162.000 236578.250  31.9%     -    0s
H    0     0                    294278.00000 237406.797  19.3%     -    0s
     0     0 237406.797    0  117 294278.000 237406.797  19.3%     -    0s
H    0     0                    291092.00000 237406.797  18.4%     -    0s
     0     0 237427.547    0  146 291092.000 237427.547  18.4%     -    0s
H    0     0                    283344.00000 237427.547  16.2%     -    0s
     0     0 238243.815    0  164 283344.000 238243.815  15.9%     -    0s
H    0     0                    257241.00000 238243.815  7.38%     -    0s
     0     0 238423.804    0  167 257241.000 238423.804  7.32%     -    0s
     0     0 238443.040    0  180 257241.000 238443.040  7.31%     -    0s
     0     0 238443.040    0  180 257241.000 238443.040  7.31%     -    0s
     0     0 239596.099    0  189 257241.000 239596.099  6.86%     -    0s
     0     0 239596.099    0   99 257241.000 239596.099  6.86%     -    1s
H    0     0                    255799.00000 239596.099  6.33%     -    1s
     0     0 239596.099    0  165 255799.000 239596.099  6.33%     -    1s
     0     0 239596.099    0  184 255799.000 239596.099  6.33%     -    1s
     0     0 239644.855    0  174 255799.000 239644.855  6.32%     -    1s
     0     0 239672.502    0  177 255799.000 239672.502  6.30%     -    1s
     0     0 239679.138    0  181 255799.000 239679.138  6.30%     -    1s
     0     0 239689.506    0  173 255799.000 239689.506  6.30%     -    1s
     0     0 239689.506    0  174 255799.000 239689.506  6.30%     -    1s
     0     0 240035.356    0  197 255799.000 240035.356  6.16%     -    1s
     0     0 240058.990    0  195 255799.000 240058.990  6.15%     -    1s
     0     0 240091.165    0  193 255799.000 240091.165  6.14%     -    1s
     0     0 240091.669    0  201 255799.000 240091.669  6.14%     -    1s
     0     0 240923.035    0  180 255799.000 240923.035  5.82%     -    1s
H    0     0                    249464.00000 240923.035  3.42%     -    1s
     0     0 241329.017    0  174 249464.000 241329.017  3.26%     -    1s
     0     0 241385.719    0  190 249464.000 241385.719  3.24%     -    1s
     0     0 241386.881    0  190 249464.000 241386.881  3.24%     -    1s
     0     0 241410.338    0  167 249464.000 241410.338  3.23%     -    1s
     0     0 241422.159    0  191 249464.000 241422.159  3.22%     -    1s
     0     0 241423.390    0  189 249464.000 241423.390  3.22%     -    1s
     0     0 241465.173    0  215 249464.000 241465.173  3.21%     -    1s
H    0     0                    242207.00000 241465.173  0.31%     -    1s
     0     0 241557.673    0  211 242207.000 241557.673  0.27%     -    1s
     0     0 241560.053    0  218 242207.000 241560.053  0.27%     -    1s
     0     0 241636.821    0  202 242207.000 241636.821  0.24%     -    2s
     0     0 241636.821    0   96 242207.000 241636.821  0.24%     -    2s
     0     0 241636.821    0  132 242207.000 241636.821  0.24%     -    2s
     0     0 241853.667    0   98 242207.000 241853.667  0.15%     -    2s
     0     0 241949.182    0  110 242207.000 241949.182  0.11%     -    2s
     0     0 241954.000    0  109 242207.000 241954.000  0.10%     -    2s
     0     0 241954.000    0  109 242207.000 241954.000  0.10%     -    2s
     0     0 242128.787    0  114 242207.000 242128.787  0.03%     -    2s

Cutting planes:
  Gomory: 3
  Cover: 3
  Clique: 18
  MIR: 17
  StrongCG: 6
  GUB cover: 29
  Zero half: 4
  RLT: 1

Explored 1 nodes (14865 simplex iterations) in 2.24 seconds (3.48 work units)
Thread count was 8 (of 8 available processors)

Solution count 10: 242207 249464 255799 ... 365720

Optimal solution found (tolerance 1.00e-04)
Best objective 2.422070000000e+05, best bound 2.422070000000e+05, gap 0.0000%

Gurobi 9.5.2 (mac64[arm]) logging started Mon May  1 21:14:51 2023

Set parameter LogFile to value "Java/output/special_iterative/scenario_seed_0_nJob_40_machineCount_2/mip_increment_1/log.txt"
Gurobi Optimizer version 9.5.2 build v9.5.2rc0 (mac64[arm])
Thread count: 8 physical cores, 8 logical processors, using up to 8 threads
Optimize a model with 2398 rows, 44286 columns and 553084 nonzeros
Model fingerprint: 0x83fb381d
Variable types: 0 continuous, 44286 integer (44286 binary)
Coefficient statistics:
  Matrix range     [1e+00, 2e+02]
  Objective range  [1e+00, 4e+06]
  Bounds range     [1e+00, 1e+00]
  RHS range        [1e+00, 1e+00]

Warning: Completing partial solution with 44165 unfixed non-continuous variables out of 44286
User MIP start produced solution with objective 323214 (0.04s)
Loaded user MIP start with objective 323214

Presolve removed 144 rows and 6286 columns
Presolve time: 0.56s
Presolved: 2254 rows, 38000 columns, 477271 nonzeros
Variable types: 0 continuous, 38000 integer (38000 binary)
Found heuristic solution: objective 322883.00000

Root simplex log...

Iteration    Objective       Primal Inf.    Dual Inf.      Time
   27072    1.7556147e+04   6.828525e+04   0.000000e+00      5s
   44808    1.7982622e+04   0.000000e+00   0.000000e+00      9s

Root relaxation: objective 1.798262e+04, 44808 iterations, 8.64 seconds (22.76 work units)

    Nodes    |    Current Node    |     Objective Bounds      |     Work
 Expl Unexpl |  Obj  Depth IntInf | Incumbent    BestBd   Gap | It/Node Time

     0     0 17982.6221    0  531 322883.000 17982.6221  94.4%     -    9s
H    0     0                    288023.00000 17982.6221  93.8%     -    9s
     0     0 18037.0811    0  657 288023.000 18037.0811  93.7%     -   14s
H    0     0                    287237.00000 18037.0811  93.7%     -   15s
     0     0 18051.3293    0  700 287237.000 18051.3293  93.7%     -   17s
     0     0 18052.3757    0  692 287237.000 18052.3757  93.7%     -   17s
     0     0 18052.3761    0  692 287237.000 18052.3761  93.7%     -   17s
     0     0 18165.6453    0  737 287237.000 18165.6453  93.7%     -   22s
H    0     0                    267966.00000 18165.6453  93.2%     -   22s
     0     0 18408.6336    0  768 267966.000 18408.6336  93.1%     -   28s
     0     0 18412.2905    0  770 267966.000 18412.2905  93.1%     -   29s
     0     0 18412.7581    0  762 267966.000 18412.7581  93.1%     -   30s
     0     0 18412.8204    0  778 267966.000 18412.8204  93.1%     -   30s
     0     0 18412.8305    0  777 267966.000 18412.8305  93.1%     -   30s
     0     0 18479.5998    0  825 267966.000 18479.5998  93.1%     -   33s
     0     0 18489.5752    0  819 267966.000 18489.5752  93.1%     -   39s
     0     0 18490.6893    0  815 267966.000 18490.6893  93.1%     -   40s
     0     0 18490.8872    0  827 267966.000 18490.8872  93.1%     -   40s
     0     0 18490.9136    0  829 267966.000 18490.9136  93.1%     -   40s
     0     0 18524.2111    0  901 267966.000 18524.2111  93.1%     -   44s
H    0     0                    260905.00000 18524.2111  92.9%     -   44s
     0     0 18540.3279    0  894 260905.000 18540.3279  92.9%     -   47s
     0     0 18542.5245    0  888 260905.000 18542.5245  92.9%     -   48s
     0     0 18542.9488    0  884 260905.000 18542.9488  92.9%     -   48s
     0     0 18542.9513    0  884 260905.000 18542.9513  92.9%     -   48s
     0     0 18579.0640    0  921 260905.000 18579.0640  92.9%     -   51s
H    0     0                    259614.00000 18579.0640  92.8%     -   51s
H    0     0                    251045.00000 18593.2019  92.6%     -   86s
H    0     0                    198262.00000 18593.2019  90.6%     -   86s
     0     0 18593.2019    0  926 198262.000 18593.2019  90.6%     -   86s
     0     0 18597.8520    0  969 198262.000 18597.8520  90.6%     -   88s
     0     0 18598.1401    0  974 198262.000 18598.1401  90.6%     -   88s
     0     0 18598.1610    0  975 198262.000 18598.1610  90.6%     -   88s
     0     0 18637.6478    0  969 198262.000 18637.6478  90.6%     -   91s
H    0     0                    198211.00000 18637.6478  90.6%     -   91s
H    0     0                    197641.00000 18637.6478  90.6%     -   91s
H    0     0                    185729.00000 18637.6478  90.0%     -   92s
     0     0 18665.0877    0  991 185729.000 18665.0877  90.0%     -   95s
     0     0 18672.0451    0  975 185729.000 18672.0451  89.9%     -   96s
     0     0 18672.9053    0  969 185729.000 18672.9053  89.9%     -   96s
     0     0 18673.0453    0  984 185729.000 18673.0453  89.9%     -   97s
     0     0 18749.8509    0  971 185729.000 18749.8509  89.9%     -  101s
H    0     0                    185705.00000 18749.8509  89.9%     -  101s
     0     0 18807.6107    0 1026 185705.000 18807.6107  89.9%     -  105s
     0     0 18812.5108    0 1051 185705.000 18812.5108  89.9%     -  106s
     0     0 18813.3048    0 1069 185705.000 18813.3048  89.9%     -  107s
     0     0 18813.5026    0 1065 185705.000 18813.5026  89.9%     -  107s
     0     0 18860.3792    0 1072 185705.000 18860.3792  89.8%     -  111s
H    0     0                    180360.00000 18860.3792  89.5%     -  111s
     0     0 18881.4063    0 1062 180360.000 18881.4063  89.5%     -  114s
     0     0 18884.5526    0 1068 180360.000 18884.5526  89.5%     -  115s
     0     0 18884.9494    0 1096 180360.000 18884.9494  89.5%     -  116s
     0     0 18907.1809    0 1080 180360.000 18907.1809  89.5%     -  119s
H    0     0                    180356.00000 18907.1809  89.5%     -  119s
     0     0 18918.0117    0 1106 180356.000 18918.0117  89.5%     -  121s
     0     0 18920.2875    0 1116 180356.000 18920.2875  89.5%     -  122s
     0     0 18920.9683    0 1110 180356.000 18920.9683  89.5%     -  122s
     0     0 18921.1311    0 1107 180356.000 18921.1311  89.5%     -  122s
     0     0 18956.3641    0 1081 180356.000 18956.3641  89.5%     -  126s
H    0     0                    179045.00000 18956.3641  89.4%     -  126s
     0     0 18978.3057    0 1124 179045.000 18978.3057  89.4%     -  129s
     0     0 18982.6411    0 1163 179045.000 18982.6411  89.4%     -  131s
     0     0 18983.1937    0 1148 179045.000 18983.1937  89.4%     -  131s
     0     0 18983.6521    0 1153 179045.000 18983.6521  89.4%     -  131s
     0     0 19031.6360    0 1111 179045.000 19031.6360  89.4%     -  135s
     0     0 19038.7873    0 1161 179045.000 19038.7873  89.4%     -  137s
     0     0 19042.3050    0 1156 179045.000 19042.3050  89.4%     -  138s
     0     0 19043.1819    0 1167 179045.000 19043.1819  89.4%     -  139s
     0     0 19043.3393    0 1160 179045.000 19043.3393  89.4%     -  139s
     0     0 19085.8625    0 1117 179045.000 19085.8625  89.3%     -  142s
H    0     0                    168097.00000 19085.8625  88.6%     -  143s
     0     0 19098.6383    0 1137 168097.000 19098.6383  88.6%     -  144s
     0     0 19100.5927    0 1172 168097.000 19100.5927  88.6%     -  145s
     0     0 19101.5741    0 1179 168097.000 19101.5741  88.6%     -  146s
     0     0 19101.8051    0 1185 168097.000 19101.8051  88.6%     -  146s
     0     0 19122.0566    0 1183 168097.000 19122.0566  88.6%     -  149s
     0     0 19133.1469    0 1155 168097.000 19133.1469  88.6%     -  151s
     0     0 19136.3849    0 1208 168097.000 19136.3849  88.6%     -  152s
     0     0 19137.8203    0 1231 168097.000 19137.8203  88.6%     -  153s
     0     0 19138.0730    0 1224 168097.000 19138.0730  88.6%     -  153s
     0     0 19191.5040    0 1205 168097.000 19191.5040  88.6%     -  158s
H    0     0                    159805.00000 19191.5040  88.0%     -  159s
     0     0 19209.5442    0 1202 159805.000 19209.5442  88.0%     -  161s
     0     0 19212.8479    0 1210 159805.000 19212.8479  88.0%     -  162s
     0     0 19214.9354    0 1239 159805.000 19214.9354  88.0%     -  163s
     0     0 19216.3617    0 1240 159805.000 19216.3617  88.0%     -  164s
     0     0 19216.5524    0 1249 159805.000 19216.5524  88.0%     -  164s
     0     0 19235.5426    0 1228 159805.000 19235.5426  88.0%     -  168s
     0     0 19238.2760    0 1258 159805.000 19238.2760  88.0%     -  169s
     0     0 19241.6560    0 1255 159805.000 19241.6560  88.0%     -  170s
     0     0 19242.1868    0 1272 159805.000 19242.1868  88.0%     -  171s
     0     0 19261.4366    0 1233 159805.000 19261.4366  87.9%     -  175s
H    0     0                    158327.00000 19261.4366  87.8%     -  175s
     0     0 19266.4180    0 1230 158327.000 19266.4180  87.8%     -  177s
     0     0 19266.8814    0 1267 158327.000 19266.8814  87.8%     -  177s
     0     0 19288.6138    0 1223 158327.000 19288.6138  87.8%     -  180s
     0     0 19293.2732    0 1226 158327.000 19293.2732  87.8%     -  182s
H    0     0                    115205.00000 19294.3837  83.3%     -  183s
     0     0 19294.3837    0 1253 115205.000 19294.3837  83.3%     -  183s
     0     0 19295.0505    0 1270 115205.000 19295.0505  83.3%     -  184s
     0     0 19322.9797    0 1258 115205.000 19322.9797  83.2%     -  188s
H    0     0                    111301.00000 19322.9797  82.6%     -  188s
H    0     0                    111285.00000 19322.9797  82.6%     -  188s
H    0     0                    111269.00000 19322.9797  82.6%     -  188s
     0     0 19324.4305    0 1259 111269.000 19324.4305  82.6%     -  189s
     0     0 19325.2946    0 1243 111269.000 19325.2946  82.6%     -  190s
     0     0 19342.0083    0 1241 111269.000 19342.0083  82.6%     -  193s
     0     0 19344.3937    0 1266 111269.000 19344.3937  82.6%     -  195s
     0     0 19344.7373    0 1271 111269.000 19344.7373  82.6%     -  195s
     0     0 19367.8937    0 1267 111269.000 19367.8937  82.6%     -  200s
H    0     0                    110590.00000 19367.8937  82.5%     -  200s
     0     0 19371.6961    0 1292 110590.000 19371.6961  82.5%     -  202s
     0     0 19372.5249    0 1295 110590.000 19372.5249  82.5%     -  203s
H    0     0                    102640.00000 19376.8745  81.1%     -  204s
     0     0 19376.8745    0 1317 102640.000 19376.8745  81.1%     -  205s
     0     0 19376.8745    0 1309 102640.000 19376.8745  81.1%     -  206s
     0     0 19376.8949    0  522 102640.000 19376.8949  81.1%     -  233s
H    0     0                    102473.00000 19376.8949  81.1%     -  233s
H    0     0                    101622.00000 19376.8949  80.9%     -  233s
H    0     0                    101286.00000 19376.8949  80.9%     -  233s
     0     0 19376.8949    0  666 101286.000 19376.8949  80.9%     -  238s
H    0     0                    101129.00000 19376.8949  80.8%     -  238s
     0     0 19376.8949    0  758 101129.000 19376.8949  80.8%     -  243s
     0     0 19376.8949    0  806 101129.000 19376.8949  80.8%     -  246s
     0     0 19376.8949    0  914 101129.000 19376.8949  80.8%     -  250s
     0     0 19376.8949    0  898 101129.000 19376.8949  80.8%     -  253s
H    0     0                    101000.00000 19376.8949  80.8%     -  256s
     0     0 19376.8949    0 1002 101000.000 19376.8949  80.8%     -  256s
     0     0 19376.8949    0 1097 101000.000 19376.8949  80.8%     -  262s
     0     0 19376.8949    0 1116 101000.000 19376.8949  80.8%     -  265s
     0     0 19376.8949    0 1147 101000.000 19376.8949  80.8%     -  268s
     0     0 19380.7212    0 1207 101000.000 19380.7212  80.8%     -  270s
     0     0 19383.0095    0 1261 101000.000 19383.0095  80.8%     -  271s
     0     0 19383.6224    0 1242 101000.000 19383.6224  80.8%     -  271s
     0     0 19383.9786    0 1248 101000.000 19383.9786  80.8%     -  271s
     0     0 19384.2443    0 1238 101000.000 19384.2443  80.8%     -  272s
     0     0 19438.1196    0 1222 101000.000 19438.1196  80.8%     -  276s
H    0     0                    93436.000000 19438.1196  79.2%     -  276s
     0     0 19450.3214    0 1215 93436.0000 19450.3214  79.2%     -  279s
     0     0 19450.8770    0 1243 93436.0000 19450.8770  79.2%     -  279s
     0     0 19473.7212    0 1224 93436.0000 19473.7212  79.2%     -  282s
H    0     0                    92954.000000 19473.7212  79.1%     -  282s
H    0     0                    92455.000000 19473.7212  78.9%     -  314s
     0     0 19482.1484    0 1244 92455.0000 19482.1484  78.9%     -  316s
     0     0 19485.2279    0 1249 92455.0000 19485.2279  78.9%     -  317s
     0     0 19485.8639    0 1239 92455.0000 19485.8639  78.9%     -  317s
     0     0 19499.4941    0 1272 92455.0000 19499.4941  78.9%     -  320s
H    0     0                    91664.000000 19499.4941  78.7%     -  320s
     0     0 19507.8926    0 1303 91664.0000 19507.8926  78.7%     -  322s
     0     0 19509.6835    0 1309 91664.0000 19509.6835  78.7%     -  323s
     0     0 19511.2807    0 1323 91664.0000 19511.2807  78.7%     -  324s
     0     0 19511.8632    0 1334 91664.0000 19511.8632  78.7%     -  324s
     0     0 19522.9850    0 1325 91664.0000 19522.9850  78.7%     -  327s
     0     0 19527.2146    0 1367 91664.0000 19527.2146  78.7%     -  329s
     0     0 19528.7075    0 1395 91664.0000 19528.7075  78.7%     -  330s
     0     0 19529.0430    0 1388 91664.0000 19529.0430  78.7%     -  330s
     0     0 19538.8396    0 1363 91664.0000 19538.8396  78.7%     -  333s
     0     0 19542.2493    0 1400 91664.0000 19542.2493  78.7%     -  335s
     0     0 19542.8496    0 1405 91664.0000 19542.8496  78.7%     -  335s
     0     0 19553.7014    0 1401 91664.0000 19553.7014  78.7%     -  339s
     0     0 19556.8032    0 1403 91664.0000 19556.8032  78.7%     -  340s
     0     0 19557.7418    0 1404 91664.0000 19557.7418  78.7%     -  341s
     0     0 19561.1716    0 1381 91664.0000 19561.1716  78.7%     -  343s
     0     0 19561.1716    0 1375 91664.0000 19561.1716  78.7%     -  344s
H    0     0                    91644.000000 19561.1833  78.7%     -  358s
H    0     2                    88327.000000 19561.1833  77.9%     -  359s
     0     2 19561.1833    0 1375 88327.0000 19561.1833  77.9%     -  359s
     1     4 19637.3802    1 1201 88327.0000 19561.1833  77.9% 11167  365s
     3     8 19641.7614    2 1221 88327.0000 19574.2337  77.8%  5518  371s
     7    16 19675.1436    3 1295 88327.0000 19587.4349  77.8%  6594  378s
    15    24 19686.2835    4 1292 88327.0000 19590.8236  77.8%  6231  392s
    23    32 19707.1161    4 1311 88327.0000 19590.8236  77.8%  8171  406s
H   31    40                    80735.000000 19599.1085  75.7%  8231  471s
H   32    40                    72901.000000 19599.1085  73.1%  8209  471s
H   36    40                    70306.000000 19599.1085  72.1%  7718  471s
    39    48 19742.0975    5 1217 70306.0000 19599.1085  72.1%  8120  480s
    47    58 19713.4473    6 1362 70306.0000 19599.1085  72.1%  7773  490s
    57    66 19738.8945    7 1249 70306.0000 19599.1085  72.1%  7584  499s
H   65    77                    69919.000000 19599.1085  72.0%  7852  512s
H   69    77                    37283.000000 19599.1085  47.4%  7615  512s
    76    85 19756.5411    9 1238 37283.0000 19599.1085  47.4%  7432  518s

Cutting planes:
  Cover: 6
  Clique: 201
  MIR: 417
  StrongCG: 197
  GUB cover: 286
  RLT: 1

Explored 84 nodes (1103932 simplex iterations) in 518.02 seconds (1446.45 work units)
Thread count was 8 (of 8 available processors)

Solution count 10: 37283 69919 70306 ... 92954

Time limit reached
Best objective 3.728300000000e+04, best bound 1.960000000000e+04, gap 47.4291%
